n_res = 4;
rcap = [14, 15, 85, 91];
rtype = [1, 1, 2, 2];
n_tasks = 16;
modes = [ {1, 2}, {3, 4}, {5, 6}, {7, 8}, {9, 10}, {11, 12}, {13, 14}, {15, 16}, {17, 18}, {19, 20}, {21, 22}, {23, 24}, {25, 26}, {27, 28}, {29, 30}, {31, 32} ];
succ = [ {4, 8, 16}, {4, 5, 7}, {4, 6, 15}, {9, 12}, {10, 12, 13}, {7, 8, 10}, {9, 16}, {9, 11}, {14}, {14, 16}, {12}, {14}, {15}, {}, {}, {} ];
n_opt = 32;
dur = [1, 9, 5, 5, 1, 10, 1, 4, 4, 8, 6, 6, 4, 9, 1, 3, 2, 8, 5, 5, 7, 10, 6, 7, 5, 5, 3, 9, 2, 8, 5, 6];
rreq = [|  7,  7,  8,  5,  9,  8,  7,  3,  4,  3,  9,  8, 10,  9,  2,  1,  3,  3,  7,  5,  7,  3,  7,  5,  5,  6, 10,  9, 10,  6,  3,  3
        |  2,  1,  3,  3,  5,  2,  5,  4,  7,  6,  1,  1,  9,  7, 10,  5,  6,  4,  3,  4,  7,  1,  5,  5, 10, 10,  9,  8, 10,  1,  8,  5
        |  9,  8,  7,  7,  6,  4, 10,  9,  6,  3,  7,  7,  8,  7,  3,  2,  7,  5,  4,  4,  8,  6,  5,  4, 10,  8,  6,  2,  4,  1,  3,  2
        |  8,  6,  3,  4,  3,  2,  9,  6,  7,  5,  4,  5,  8,  3, 10, 10, 10, 10,  7,  9,  1,  1,  5,  5,  3,  7,  9,  4,  7,  6, 10,  9 |];
